* ENCODING=ISO-8859-1
NAME          CPLEX
ROWS
 N  obj1    
 G  c1      
 G  c2      
 G  c3      
 G  c4      
 G  c5      
 G  c6      
 G  c7      
 G  c8      
 G  c9      
 G  c10     
 G  c11     
 G  c12     
 G  c13     
 G  c14     
 G  c15     
 G  c16     
 G  c17     
 G  c18     
 G  c19     
 G  c20     
 G  c21     
 G  c22     
 G  c23     
 G  c24     
 G  c25     
 G  c26     
 G  c27     
 G  c28     
 G  c29     
 G  c30     
 G  c31     
 G  c32     
 G  c33     
 G  c34     
 G  c35     
COLUMNS
    MARK0000  'MARKER'                 'INTORG'
    x1        obj1                            1
    x1        c2                            767
    x1        c22                           240
    x1        c30                           877
    x2        obj1                            1
    x3        obj1                            1
    x3        c16                           659
    x4        obj1                            1
    x4        c3                            242
    x4        c9                            734
    x4        c11                           993
    x4        c29                           663
    x5        obj1                            1
    x5        c3                            356
    x5        c20                           467
    x5        c23                           699
    x6        obj1                            1
    x6        c3                            260
    x6        c6                            673
    x6        c7                            379
    x6        c28                           493
    x6        c31                           139
    x7        obj1                            1
    x7        c15                           509
    x7        c21                           447
    x7        c25                           371
    x7        c32                           218
    x8        obj1                            1
    x8        c3                            674
    x9        obj1                            1
    x9        c3                            474
    x9        c10                           296
    x9        c16                           564
    x9        c30                           539
    x9        c34                           585
    x10       obj1                            1
    x10       c18                           810
    x10       c26                           739
    x11       obj1                            1
    x11       c7                            244
    x11       c21                           740
    x11       c25                           445
    x11       c35                           478
    x12       obj1                            1
    x12       c1                            610
    x12       c13                           837
    x12       c23                           866
    x12       c32                           826
    x13       obj1                            1
    x13       c10                           457
    x13       c13                           510
    x13       c35                           941
    x14       obj1                            1
    x14       c13                           772
    x14       c23                           603
    x14       c29                           930
    x14       c35                           905
    x15       obj1                            1
    x15       c5                            108
    x15       c6                            676
    x15       c7                            586
    x15       c9                            910
    x15       c14                           193
    x15       c16                           411
    x15       c29                           746
    x15       c32                           389
    x16       obj1                            1
    x16       c5                            461
    x16       c17                           306
    x16       c24                           621
    x17       obj1                            1
    x17       c1                            208
    x17       c2                            667
    x17       c15                           720
    x17       c24                           939
    x17       c28                           784
    x17       c32                           998
    x18       obj1                            1
    x18       c6                            712
    x18       c29                           249
    x19       obj1                            1
    x19       c13                           834
    x19       c25                           538
    x19       c26                           806
    x19       c29                           133
    x19       c30                           328
    x20       obj1                            1
    x20       c12                           811
    x20       c14                           300
    x20       c18                           624
    x20       c23                           262
    x20       c26                           774
    x21       obj1                            1
    x21       c4                            943
    x21       c7                            707
    x21       c11                           220
    x21       c17                           458
    x21       c21                           723
    x21       c27                           552
    x21       c31                           699
    x22       obj1                            1
    x23       obj1                            1
    x23       c11                           686
    x23       c23                           982
    x23       c26                           157
    x23       c31                           265
    x24       obj1                            1
    x24       c13                           937
    x24       c17                           677
    x24       c28                           658
    x24       c33                           554
    x24       c35                           372
    x25       obj1                            1
    x25       c4                            583
    x25       c30                           565
    x26       obj1                            1
    x26       c9                            319
    x26       c11                           202
    x26       c23                           907
    x26       c34                           377
    x27       obj1                            1
    x27       c5                            958
    x27       c12                           361
    x27       c17                           886
    x27       c23                           380
    x27       c31                           773
    x27       c32                           309
    x27       c33                           291
    x28       obj1                            1
    x28       c8                            661
    x28       c25                           985
    x28       c31                           585
    x28       c34                           367
    x29       obj1                            1
    x29       c2                            647
    x29       c25                           881
    x29       c30                           494
    x30       obj1                            1
    x30       c28                           839
    x31       obj1                            1
    x31       c9                            217
    x31       c10                           140
    x31       c17                           332
    x32       obj1                            1
    x32       c20                           674
    x32       c22                           945
    x32       c26                           467
    x33       obj1                            1
    x33       c27                           765
    x34       obj1                            1
    x34       c2                            730
    x34       c13                           262
    x34       c18                           285
    x34       c32                           618
    x35       obj1                            1
    x36       obj1                            1
    x36       c18                           620
    x36       c24                           630
    x36       c25                           421
    x37       obj1                            1
    x37       c2                            554
    x37       c20                           403
    x37       c23                           349
    x37       c27                           299
    x37       c29                           213
    x37       c32                           199
    x38       obj1                            1
    x38       c7                            133
    x38       c8                            145
    x38       c14                           219
    x38       c16                           609
    x38       c17                           336
    x39       obj1                            1
    x39       c4                            460
    x39       c14                           948
    x39       c22                           939
    x39       c34                           420
    x40       obj1                            1
    x40       c7                            682
    x40       c9                            381
    x40       c17                           277
    x40       c22                           254
    x40       c25                           505
    x41       obj1                            1
    x41       c3                            290
    x41       c28                           152
    x41       c31                           201
    x41       c34                           621
    x42       obj1                            1
    x42       c3                            642
    x42       c21                           152
    x42       c35                           175
    x43       obj1                            1
    x43       c5                            779
    x43       c8                            472
    x43       c9                            971
    x43       c15                           494
    x43       c22                           988
    x43       c23                           459
    x43       c34                           141
    x43       c35                           616
    x44       obj1                            1
    x44       c7                            404
    x44       c8                            963
    x44       c32                           243
    x45       obj1                            1
    x45       c22                           964
    x46       obj1                            1
    x47       obj1                            1
    x47       c4                            909
    x48       obj1                            1
    x48       c15                           991
    x48       c17                           463
    x48       c21                           728
    x49       obj1                            1
    x49       c5                            229
    x49       c29                           880
    x50       obj1                            1
    x50       c12                           696
    x50       c16                           263
    x50       c21                           659
    x50       c28                           360
    x51       obj1                            1
    x51       c1                            281
    x51       c8                            715
    x51       c13                           246
    x52       obj1                            1
    x52       c9                            571
    x52       c30                           448
    x52       c33                           594
    x53       obj1                            1
    x53       c5                            712
    x53       c9                            780
    x53       c25                           408
    x54       obj1                            1
    x54       c27                           837
    x54       c28                           403
    x54       c29                           239
    x54       c33                           684
    x55       obj1                            1
    x55       c24                           828
    x55       c33                           746
    x56       obj1                            1
    x56       c2                            370
    x56       c14                           140
    x56       c19                           926
    x56       c29                           199
    x56       c30                           584
    x57       obj1                            1
    x57       c7                            237
    x58       obj1                            1
    x58       c19                           576
    x58       c20                           842
    x58       c31                           665
    x58       c32                           219
    x59       obj1                            1
    x59       c19                           888
    x59       c24                           952
    x59       c33                           508
    x60       obj1                            1
    x60       c20                           370
    x60       c24                           599
    x60       c28                           480
    x60       c29                           517
    x61       obj1                            1
    x61       c7                            886
    x61       c15                           186
    x61       c19                           350
    x61       c20                           973
    x61       c24                           718
    x61       c34                           787
    x62       obj1                            1
    x62       c16                           531
    x62       c17                           829
    x62       c19                           539
    x62       c26                           386
    x62       c33                           752
    x63       obj1                            1
    x63       c9                            636
    x63       c13                           255
    x63       c34                           727
    x64       obj1                            1
    x64       c1                            451
    x64       c18                           727
    x64       c26                           771
    x64       c27                           285
    x64       c30                           436
    x65       obj1                            1
    x65       c6                            210
    x65       c17                           210
    x65       c35                           658
    x66       obj1                            1
    x66       c9                            283
    x66       c11                           568
    x66       c12                           988
    x66       c15                           638
    x66       c20                           476
    x67       obj1                            1
    x67       c13                           926
    x68       obj1                            1
    x68       c13                           457
    x68       c15                           671
    x68       c27                           707
    x69       obj1                            1
    x69       c1                            444
    x69       c2                            125
    x69       c23                           739
    x69       c24                           239
    x69       c26                           485
    x70       obj1                            1
    x70       c7                            109
    x70       c10                           492
    x70       c12                           204
    x70       c19                           291
    x70       c32                           662
    MARK0001  'MARKER'                 'INTEND'
RHS
    rhs       c1                            997
    rhs       c2                           1930
    rhs       c3                           1469
    rhs       c4                           1448
    rhs       c5                           1624
    rhs       c6                           1136
    rhs       c7                           2184
    rhs       c8                           1478
    rhs       c9                           2901
    rhs       c10                           693
    rhs       c11                          1335
    rhs       c12                          1530
    rhs       c13                          3018
    rhs       c14                           900
    rhs       c15                          2105
    rhs       c16                          1519
    rhs       c17                          2387
    rhs       c18                          1533
    rhs       c19                          1785
    rhs       c20                          2103
    rhs       c21                          1725
    rhs       c22                          2165
    rhs       c23                          3123
    rhs       c24                          2763
    rhs       c25                          2277
    rhs       c26                          2293
    rhs       c27                          1723
    rhs       c28                          2085
    rhs       c29                          2385
    rhs       c30                          2136
    rhs       c31                          1664
    rhs       c32                          2341
    rhs       c33                          2065
    rhs       c34                          2013
    rhs       c35                          2073
BOUNDS
 LI bnd       x1        0
 LI bnd       x2        0
 LI bnd       x3        0
 LI bnd       x4        0
 LI bnd       x5        0
 LI bnd       x6        0
 LI bnd       x7        0
 LI bnd       x8        0
 LI bnd       x9        0
 LI bnd       x10       0
 LI bnd       x11       0
 LI bnd       x12       0
 LI bnd       x13       0
 LI bnd       x14       0
 LI bnd       x15       0
 LI bnd       x16       0
 LI bnd       x17       0
 LI bnd       x18       0
 LI bnd       x19       0
 LI bnd       x20       0
 LI bnd       x21       0
 LI bnd       x22       0
 LI bnd       x23       0
 LI bnd       x24       0
 LI bnd       x25       0
 LI bnd       x26       0
 LI bnd       x27       0
 LI bnd       x28       0
 LI bnd       x29       0
 LI bnd       x30       0
 LI bnd       x31       0
 LI bnd       x32       0
 LI bnd       x33       0
 LI bnd       x34       0
 LI bnd       x35       0
 LI bnd       x36       0
 LI bnd       x37       0
 LI bnd       x38       0
 LI bnd       x39       0
 LI bnd       x40       0
 LI bnd       x41       0
 LI bnd       x42       0
 LI bnd       x43       0
 LI bnd       x44       0
 LI bnd       x45       0
 LI bnd       x46       0
 LI bnd       x47       0
 LI bnd       x48       0
 LI bnd       x49       0
 LI bnd       x50       0
 LI bnd       x51       0
 LI bnd       x52       0
 LI bnd       x53       0
 LI bnd       x54       0
 LI bnd       x55       0
 LI bnd       x56       0
 LI bnd       x57       0
 LI bnd       x58       0
 LI bnd       x59       0
 LI bnd       x60       0
 LI bnd       x61       0
 LI bnd       x62       0
 LI bnd       x63       0
 LI bnd       x64       0
 LI bnd       x65       0
 LI bnd       x66       0
 LI bnd       x67       0
 LI bnd       x68       0
 LI bnd       x69       0
 LI bnd       x70       0
ENDATA
